c File: flat50_3_0.col
c
c SOURCE: Joseph Culberson (joe@cs.ualberta.ca)
c DESCRIPTION: Quasi-random coloring problem
c              generated with flatness = 0
c                             probability = 0.139
c                             known coloring = 3
c                             random seed = 1773
c              Creation Date:  Tue Jun  9 12:17:32 1998
c Maximum degree = 7 Minimum degree = 2
c p edge 50 115
c cnf created by edge2cnf
p cnf 150 545
-1 -2 0
-1 -3 0
-2 -3 0
1 2 3 0
-4 -5 0
-4 -6 0
-5 -6 0
4 5 6 0
-7 -8 0
-7 -9 0
-8 -9 0
7 8 9 0
-10 -11 0
-10 -12 0
-11 -12 0
10 11 12 0
-13 -14 0
-13 -15 0
-14 -15 0
13 14 15 0
-16 -17 0
-16 -18 0
-17 -18 0
16 17 18 0
-19 -20 0
-19 -21 0
-20 -21 0
19 20 21 0
-22 -23 0
-22 -24 0
-23 -24 0
22 23 24 0
-25 -26 0
-25 -27 0
-26 -27 0
25 26 27 0
-28 -29 0
-28 -30 0
-29 -30 0
28 29 30 0
-31 -32 0
-31 -33 0
-32 -33 0
31 32 33 0
-34 -35 0
-34 -36 0
-35 -36 0
34 35 36 0
-37 -38 0
-37 -39 0
-38 -39 0
37 38 39 0
-40 -41 0
-40 -42 0
-41 -42 0
40 41 42 0
-43 -44 0
-43 -45 0
-44 -45 0
43 44 45 0
-46 -47 0
-46 -48 0
-47 -48 0
46 47 48 0
-49 -50 0
-49 -51 0
-50 -51 0
49 50 51 0
-52 -53 0
-52 -54 0
-53 -54 0
52 53 54 0
-55 -56 0
-55 -57 0
-56 -57 0
55 56 57 0
-58 -59 0
-58 -60 0
-59 -60 0
58 59 60 0
-61 -62 0
-61 -63 0
-62 -63 0
61 62 63 0
-64 -65 0
-64 -66 0
-65 -66 0
64 65 66 0
-67 -68 0
-67 -69 0
-68 -69 0
67 68 69 0
-70 -71 0
-70 -72 0
-71 -72 0
70 71 72 0
-73 -74 0
-73 -75 0
-74 -75 0
73 74 75 0
-76 -77 0
-76 -78 0
-77 -78 0
76 77 78 0
-79 -80 0
-79 -81 0
-80 -81 0
79 80 81 0
-82 -83 0
-82 -84 0
-83 -84 0
82 83 84 0
-85 -86 0
-85 -87 0
-86 -87 0
85 86 87 0
-88 -89 0
-88 -90 0
-89 -90 0
88 89 90 0
-91 -92 0
-91 -93 0
-92 -93 0
91 92 93 0
-94 -95 0
-94 -96 0
-95 -96 0
94 95 96 0
-97 -98 0
-97 -99 0
-98 -99 0
97 98 99 0
-100 -101 0
-100 -102 0
-101 -102 0
100 101 102 0
-103 -104 0
-103 -105 0
-104 -105 0
103 104 105 0
-106 -107 0
-106 -108 0
-107 -108 0
106 107 108 0
-109 -110 0
-109 -111 0
-110 -111 0
109 110 111 0
-112 -113 0
-112 -114 0
-113 -114 0
112 113 114 0
-115 -116 0
-115 -117 0
-116 -117 0
115 116 117 0
-118 -119 0
-118 -120 0
-119 -120 0
118 119 120 0
-121 -122 0
-121 -123 0
-122 -123 0
121 122 123 0
-124 -125 0
-124 -126 0
-125 -126 0
124 125 126 0
-127 -128 0
-127 -129 0
-128 -129 0
127 128 129 0
-130 -131 0
-130 -132 0
-131 -132 0
130 131 132 0
-133 -134 0
-133 -135 0
-134 -135 0
133 134 135 0
-136 -137 0
-136 -138 0
-137 -138 0
136 137 138 0
-139 -140 0
-139 -141 0
-140 -141 0
139 140 141 0
-142 -143 0
-142 -144 0
-143 -144 0
142 143 144 0
-145 -146 0
-145 -147 0
-146 -147 0
145 146 147 0
-148 -149 0
-148 -150 0
-149 -150 0
148 149 150 0
-58 -1 0
-59 -2 0
-60 -3 0
-127 -1 0
-128 -2 0
-129 -3 0
-97 -4 0
-98 -5 0
-99 -6 0
-136 -4 0
-137 -5 0
-138 -6 0
-55 -7 0
-56 -8 0
-57 -9 0
-67 -7 0
-68 -8 0
-69 -9 0
-76 -7 0
-77 -8 0
-78 -9 0
-88 -7 0
-89 -8 0
-90 -9 0
-124 -7 0
-125 -8 0
-126 -9 0
-133 -7 0
-134 -8 0
-135 -9 0
-52 -10 0
-53 -11 0
-54 -12 0
-61 -10 0
-62 -11 0
-63 -12 0
-133 -10 0
-134 -11 0
-135 -12 0
-82 -13 0
-83 -14 0
-84 -15 0
-100 -13 0
-101 -14 0
-102 -15 0
-106 -13 0
-107 -14 0
-108 -15 0
-148 -13 0
-149 -14 0
-150 -15 0
-76 -16 0
-77 -17 0
-78 -18 0
-85 -16 0
-86 -17 0
-87 -18 0
-94 -16 0
-95 -17 0
-96 -18 0
-118 -16 0
-119 -17 0
-120 -18 0
-124 -16 0
-125 -17 0
-126 -18 0
-148 -16 0
-149 -17 0
-150 -18 0
-64 -19 0
-65 -20 0
-66 -21 0
-97 -19 0
-98 -20 0
-99 -21 0
-118 -19 0
-119 -20 0
-120 -21 0
-142 -19 0
-143 -20 0
-144 -21 0
-70 -22 0
-71 -23 0
-72 -24 0
-82 -22 0
-83 -23 0
-84 -24 0
-106 -22 0
-107 -23 0
-108 -24 0
-109 -22 0
-110 -23 0
-111 -24 0
-121 -22 0
-122 -23 0
-123 -24 0
-139 -22 0
-140 -23 0
-141 -24 0
-55 -25 0
-56 -26 0
-57 -27 0
-73 -25 0
-74 -26 0
-75 -27 0
-88 -25 0
-89 -26 0
-90 -27 0
-91 -25 0
-92 -26 0
-93 -27 0
-118 -25 0
-119 -26 0
-120 -27 0
-121 -25 0
-122 -26 0
-123 -27 0
-145 -25 0
-146 -26 0
-147 -27 0
-61 -28 0
-62 -29 0
-63 -30 0
-67 -28 0
-68 -29 0
-69 -30 0
-121 -28 0
-122 -29 0
-123 -30 0
-127 -28 0
-128 -29 0
-129 -30 0
-61 -31 0
-62 -32 0
-63 -33 0
-73 -31 0
-74 -32 0
-75 -33 0
-112 -31 0
-113 -32 0
-114 -33 0
-136 -31 0
-137 -32 0
-138 -33 0
-139 -31 0
-140 -32 0
-141 -33 0
-142 -31 0
-143 -32 0
-144 -33 0
-67 -34 0
-68 -35 0
-69 -36 0
-103 -34 0
-104 -35 0
-105 -36 0
-61 -37 0
-62 -38 0
-63 -39 0
-76 -37 0
-77 -38 0
-78 -39 0
-85 -37 0
-86 -38 0
-87 -39 0
-88 -37 0
-89 -38 0
-90 -39 0
-76 -40 0
-77 -41 0
-78 -42 0
-88 -40 0
-89 -41 0
-90 -42 0
-91 -40 0
-92 -41 0
-93 -42 0
-112 -40 0
-113 -41 0
-114 -42 0
-130 -40 0
-131 -41 0
-132 -42 0
-139 -40 0
-140 -41 0
-141 -42 0
-145 -40 0
-146 -41 0
-147 -42 0
-64 -43 0
-65 -44 0
-66 -45 0
-73 -43 0
-74 -44 0
-75 -45 0
-91 -43 0
-92 -44 0
-93 -45 0
-97 -43 0
-98 -44 0
-99 -45 0
-115 -43 0
-116 -44 0
-117 -45 0
-97 -46 0
-98 -47 0
-99 -48 0
-100 -46 0
-101 -47 0
-102 -48 0
-115 -46 0
-116 -47 0
-117 -48 0
-136 -46 0
-137 -47 0
-138 -48 0
-145 -46 0
-146 -47 0
-147 -48 0
-148 -46 0
-149 -47 0
-150 -48 0
-79 -49 0
-80 -50 0
-81 -51 0
-124 -49 0
-125 -50 0
-126 -51 0
-127 -49 0
-128 -50 0
-129 -51 0
-121 -52 0
-122 -53 0
-123 -54 0
-145 -52 0
-146 -53 0
-147 -54 0
-124 -55 0
-125 -56 0
-126 -57 0
-103 -58 0
-104 -59 0
-105 -60 0
-124 -58 0
-125 -59 0
-126 -60 0
-130 -58 0
-131 -59 0
-132 -60 0
-136 -58 0
-137 -59 0
-138 -60 0
-109 -61 0
-110 -62 0
-111 -63 0
-139 -61 0
-140 -62 0
-141 -63 0
-124 -64 0
-125 -65 0
-126 -66 0
-112 -67 0
-113 -68 0
-114 -69 0
-145 -67 0
-146 -68 0
-147 -69 0
-109 -70 0
-110 -71 0
-111 -72 0
-115 -70 0
-116 -71 0
-117 -72 0
-121 -70 0
-122 -71 0
-123 -72 0
-145 -70 0
-146 -71 0
-147 -72 0
-106 -76 0
-107 -77 0
-108 -78 0
-148 -76 0
-149 -77 0
-150 -78 0
-103 -79 0
-104 -80 0
-105 -81 0
-106 -79 0
-107 -80 0
-108 -81 0
-133 -79 0
-134 -80 0
-135 -81 0
-127 -82 0
-128 -83 0
-129 -84 0
-106 -85 0
-107 -86 0
-108 -87 0
-118 -85 0
-119 -86 0
-120 -87 0
-139 -85 0
-140 -86 0
-141 -87 0
-103 -88 0
-104 -89 0
-105 -90 0
-139 -88 0
-140 -89 0
-141 -90 0
-148 -88 0
-149 -89 0
-150 -90 0
-139 -91 0
-140 -92 0
-141 -93 0
-148 -91 0
-149 -92 0
-150 -93 0
-106 -94 0
-107 -95 0
-108 -96 0
-124 -94 0
-125 -95 0
-126 -96 0
-130 -94 0
-131 -95 0
-132 -96 0
-133 -94 0
-134 -95 0
-135 -96 0
-103 -97 0
-104 -98 0
-105 -99 0
-115 -100 0
-116 -101 0
-117 -102 0
-133 -100 0
-134 -101 0
-135 -102 0
-145 -100 0
-146 -101 0
-147 -102 0
